param M := 5;  # Number of characters of the first string
param N := 5;  # Number of characters of the second string
param FIRST_STRING : 1 2 3 4 5 :=
                     r s u q c;
param SECOND_STRING : 1 2 3 4 5 :=
                      p z u y a;
end;